# Objective value = 6957.99993277481
I_0_0 1549
I_0_1 1894
I_0_2 1.9369999999949946e+03
I_0_3 2.0009999887861318e+03
I_0_4 1.7659999894943810e+03
I_0_5 1.8199999999999991e+03
I_0_6 2.4589999999999991e+03
I_1_0 78
I_1_1 39
I_1_2 78
I_1_3 39
I_1_4 78
I_1_5 3.8999999999999986e+01
I_1_6 0
I_2_0 190
I_2_1 95
I_2_2 190
I_2_3 95.0000112118619
I_2_4 190
I_2_5 9.4999999999998721e+01
I_2_6 0
I_3_0 26
I_3_1 13
I_3_2 26
I_3_3 1.3000000000005492e+01
I_3_4 26
I_3_5 1.2999999999999844e+01
I_3_6 0
I_4_0 55
I_4_1 0
I_4_2 55
I_4_3 0
I_4_4 55
I_4_5 55
I_4_6 0
I_5_0 94
I_5_1 47
I_5_2 0
I_5_3 94
I_5_4 94
I_5_5 4.6999999999999361e+01
I_5_6 0
I_6_0 39
I_6_1 39
I_6_2 0
I_6_3 39
I_6_4 0
I_6_5 39
I_6_6 0
I_7_0 89
I_7_1 89
I_7_2 0
I_7_3 89
I_7_4 1.0505618032407237e-05
I_7_5 89
I_7_6 0
I_8_0 89
I_8_1 89
I_8_2 0
I_8_3 89
I_8_4 0
I_8_5 89
I_8_6 0
I_9_0 154
I_9_1 154
I_9_2 7.7000000000000028e+01
I_9_3 0
I_9_4 154
I_9_5 7.6999999999998721e+01
I_9_6 0
I_10_0 96
I_10_1 0
I_10_2 96
I_10_3 0
I_10_4 96
I_10_5 96
I_10_6 0
q_1_0_0 0
q_1_0_1 78
q_1_0_2 0
q_1_0_3 78
q_1_0_4 0
q_1_0_5 0
q_1_1_0 0
q_1_1_1 0
q_1_1_2 0
q_1_1_3 0
q_1_1_4 0
q_1_1_5 0
q_1_2_0 0
q_1_2_1 0
q_1_2_2 0
q_1_2_3 0
q_1_2_4 0
q_1_2_5 0
q_1_3_0 0
q_1_3_1 0
q_1_3_2 0
q_1_3_3 0
q_1_3_4 0
q_1_3_5 0
q_2_0_0 0
q_2_0_1 0
q_2_0_2 0
q_2_0_3 0
q_2_0_4 0
q_2_0_5 0
q_2_1_0 0
q_2_1_1 0
q_2_1_2 0
q_2_1_3 1.8999998878613820e+02
q_2_1_4 0
q_2_1_5 0
q_2_2_0 0
q_2_2_1 190
q_2_2_2 0
q_2_2_3 0
q_2_2_4 0
q_2_2_5 0
q_2_3_0 0
q_2_3_1 0
q_2_3_2 1.1208862770156116e-05
q_2_3_3 0
q_2_3_4 0
q_2_3_5 0
q_3_0_0 0
q_3_0_1 0
q_3_0_2 0
q_3_0_3 0
q_3_0_4 0
q_3_0_5 0
q_3_1_0 0
q_3_1_1 26
q_3_1_2 0
q_3_1_3 0
q_3_1_4 0
q_3_1_5 0
q_3_2_0 0
q_3_2_1 0
q_3_2_2 0
q_3_2_3 2.5999999999994508e+01
q_3_2_4 0
q_3_2_5 0
q_3_3_0 0
q_3_3_1 0
q_3_3_2 0
q_3_3_3 0
q_3_3_4 0
q_3_3_5 0
q_4_0_0 0
q_4_0_1 110
q_4_0_2 0
q_4_0_3 110
q_4_0_4 1.6925632046407373e-05
q_4_0_5 0
q_4_1_0 0
q_4_1_1 0
q_4_1_2 0
q_4_1_3 0
q_4_1_4 6.4922358284613257e-06
q_4_1_5 0
q_4_2_0 0
q_4_2_1 0
q_4_2_2 0
q_4_2_3 0
q_4_2_4 5.4999976605048822e+01
q_4_2_5 0
q_4_3_0 0
q_4_3_1 0
q_4_3_2 0
q_4_3_3 0
q_4_3_4 0
q_4_3_5 0
q_5_0_0 0
q_5_0_1 0
q_5_0_2 0
q_5_0_3 47
q_5_0_4 0
q_5_0_5 0
q_5_1_0 0
q_5_1_1 0
q_5_1_2 0
q_5_1_3 0
q_5_1_4 0
q_5_1_5 0
q_5_2_0 0
q_5_2_1 0
q_5_2_2 141
q_5_2_3 0
q_5_2_4 0
q_5_2_5 0
q_5_3_0 0
q_5_3_1 0
q_5_3_2 0
q_5_3_3 0
q_5_3_4 0
q_5_3_5 0
q_6_0_0 39
q_6_0_1 0
q_6_0_2 0
q_6_0_3 0
q_6_0_4 3.3308294446424538e-05
q_6_0_5 0
q_6_1_0 0
q_6_1_1 0
q_6_1_2 0
q_6_1_3 0
q_6_1_4 0
q_6_1_5 0
q_6_2_0 0
q_6_2_1 0
q_6_2_2 78
q_6_2_3 0
q_6_2_4 7.7999966691705538e+01
q_6_2_5 0
q_6_3_0 0
q_6_3_1 0
q_6_3_2 0
q_6_3_3 0
q_6_3_4 0
q_6_3_5 0
q_7_0_0 0
q_7_0_1 0
q_7_0_2 178
q_7_0_3 0
q_7_0_4 177.999932588958
q_7_0_5 0
q_7_1_0 89
q_7_1_1 0
q_7_1_2 0
q_7_1_3 1.0505618032407242e-05
q_7_1_4 5.6905423970299309e-05
q_7_1_5 0
q_7_2_0 0
q_7_2_1 0
q_7_2_2 0
q_7_2_3 0
q_7_2_4 0
q_7_2_5 0
q_7_3_0 0
q_7_3_1 0
q_7_3_2 0
q_7_3_3 0
q_7_3_4 0
q_7_3_5 0
q_8_0_0 89
q_8_0_1 0
q_8_0_2 0
q_8_0_3 0
q_8_0_4 5.6905423970299296e-05
q_8_0_5 0
q_8_1_0 0
q_8_1_1 0
q_8_1_2 178
q_8_1_3 0
q_8_1_4 1.7799994309457603e+02
q_8_1_5 0
q_8_2_0 0
q_8_2_1 0
q_8_2_2 0
q_8_2_3 0
q_8_2_4 0
q_8_2_5 0
q_8_3_0 0
q_8_3_1 0
q_8_3_2 0
q_8_3_3 0
q_8_3_4 0
q_8_3_5 0
q_9_0_0 0
q_9_0_1 0
q_9_0_2 0
q_9_0_3 0
q_9_0_4 0
q_9_0_5 0
q_9_1_0 77
q_9_1_1 0
q_9_1_2 0
q_9_1_3 0
q_9_1_4 0
q_9_1_5 0
q_9_2_0 0
q_9_2_1 0
q_9_2_2 0
q_9_2_3 0
q_9_2_4 0
q_9_2_5 0
q_9_3_0 0
q_9_3_1 0
q_9_3_2 0
q_9_3_3 231
q_9_3_4 0
q_9_3_5 0
q_10_0_0 0
q_10_0_1 0
q_10_0_2 0
q_10_0_3 0
q_10_0_4 2.9662921377848761e-05
q_10_0_5 0
q_10_1_0 0
q_10_1_1 192
q_10_1_2 0
q_10_1_3 0
q_10_1_4 1.1331902558266952e-05
q_10_1_5 0
q_10_2_0 0
q_10_2_1 0
q_10_2_2 0
q_10_2_3 192
q_10_2_4 9.5999959005176066e+01
q_10_2_5 0
q_10_3_0 0
q_10_3_1 0
q_10_3_2 0
q_10_3_3 0
q_10_3_4 0
q_10_3_5 0
y_0_0_0 1
y_0_0_1 1
y_0_0_2 1
y_0_0_3 1
y_0_0_4 1
y_0_0_5 0
y_0_1_0 1
y_0_1_1 1
y_0_1_2 1
y_0_1_3 1
y_0_1_4 1
y_0_1_5 0
y_0_2_0 0
y_0_2_1 1
y_0_2_2 1
y_0_2_3 1
y_0_2_4 9.9999957422058394e-01
y_0_2_5 0
y_0_3_0 0
y_0_3_1 0
y_0_3_2 1.0937691804842814e-07
y_0_3_3 1
y_0_3_4 0
y_0_3_5 0
y_1_0_0 0
y_1_0_1 1
y_1_0_2 0
y_1_0_3 1
y_1_0_4 0
y_1_0_5 0
y_1_1_0 0
y_1_1_1 0
y_1_1_2 0
y_1_1_3 0
y_1_1_4 0
y_1_1_5 0
y_1_2_0 0
y_1_2_1 0
y_1_2_2 0
y_1_2_3 0
y_1_2_4 0
y_1_2_5 0
y_1_3_0 0
y_1_3_1 0
y_1_3_2 0
y_1_3_3 0
y_1_3_4 0
y_1_3_5 0
y_2_0_0 0
y_2_0_1 0
y_2_0_2 0
y_2_0_3 0
y_2_0_4 0
y_2_0_5 0
y_2_1_0 0
y_2_1_1 0
y_2_1_2 0
y_2_1_3 1
y_2_1_4 0
y_2_1_5 0
y_2_2_0 0
y_2_2_1 1
y_2_2_2 0
y_2_2_3 0
y_2_2_4 0
y_2_2_5 0
y_2_3_0 0
y_2_3_1 0
y_2_3_2 1.0937691804842814e-07
y_2_3_3 0
y_2_3_4 0
y_2_3_5 0
y_3_0_0 0
y_3_0_1 0
y_3_0_2 0
y_3_0_3 0
y_3_0_4 0
y_3_0_5 0
y_3_1_0 0
y_3_1_1 1
y_3_1_2 0
y_3_1_3 0
y_3_1_4 0
y_3_1_5 0
y_3_2_0 0
y_3_2_1 0
y_3_2_2 0
y_3_2_3 1
y_3_2_4 0
y_3_2_5 0
y_3_3_0 0
y_3_3_1 0
y_3_3_2 0
y_3_3_3 0
y_3_3_4 0
y_3_3_5 0
y_4_0_0 0
y_4_0_1 1
y_4_0_2 0
y_4_0_3 1
y_4_0_4 3.0559987546370237e-07
y_4_0_5 0
y_4_1_0 0
y_4_1_1 0
y_4_1_2 0
y_4_1_3 0
y_4_1_4 1.1498509609305852e-07
y_4_1_5 0
y_4_2_0 0
y_4_2_1 0
y_4_2_2 0
y_4_2_3 0
y_4_2_4 9.9999957463725064e-01
y_4_2_5 0
y_4_3_0 0
y_4_3_1 0
y_4_3_2 0
y_4_3_3 0
y_4_3_4 0
y_4_3_5 0
y_5_0_0 0
y_5_0_1 0
y_5_0_2 0
y_5_0_3 1
y_5_0_4 0
y_5_0_5 0
y_5_1_0 0
y_5_1_1 0
y_5_1_2 0
y_5_1_3 0
y_5_1_4 0
y_5_1_5 0
y_5_2_0 0
y_5_2_1 0
y_5_2_2 1
y_5_2_3 0
y_5_2_4 0
y_5_2_5 0
y_5_3_0 0
y_5_3_1 0
y_5_3_2 0
y_5_3_3 0
y_5_3_4 0
y_5_3_5 0
y_6_0_0 1
y_6_0_1 0
y_6_0_2 0
y_6_0_3 0
y_6_0_4 4.2696531341569916e-07
y_6_0_5 0
y_6_1_0 0
y_6_1_1 0
y_6_1_2 0
y_6_1_3 0
y_6_1_4 0
y_6_1_5 0
y_6_2_0 0
y_6_2_1 0
y_6_2_2 1
y_6_2_3 0
y_6_2_4 9.9999957463725064e-01
y_6_2_5 0
y_6_3_0 0
y_6_3_1 0
y_6_3_2 0
y_6_3_3 0
y_6_3_4 0
y_6_3_5 0
y_7_0_0 0
y_7_0_1 0
y_7_0_2 1
y_7_0_3 0
y_7_0_4 9.9999968197327360e-01
y_7_0_5 0
y_7_1_0 1
y_7_1_1 0
y_7_1_2 0
y_7_1_3 1.1447939274484447e-07
y_7_1_4 3.1967466649980883e-07
y_7_1_5 0
y_7_2_0 0
y_7_2_1 0
y_7_2_2 0
y_7_2_3 0
y_7_2_4 0
y_7_2_5 0
y_7_3_0 0
y_7_3_1 0
y_7_3_2 0
y_7_3_3 0
y_7_3_4 0
y_7_3_5 0
y_8_0_0 1
y_8_0_1 0
y_8_0_2 0
y_8_0_3 0
y_8_0_4 3.1967466649980877e-07
y_8_0_5 0
y_8_1_0 0
y_8_1_1 0
y_8_1_2 1
y_8_1_3 0
y_8_1_4 9.9999968033469677e-01
y_8_1_5 0
y_8_2_0 0
y_8_2_1 0
y_8_2_2 0
y_8_2_3 0
y_8_2_4 0
y_8_2_5 0
y_8_3_0 0
y_8_3_1 0
y_8_3_2 0
y_8_3_3 0
y_8_3_4 0
y_8_3_5 0
y_9_0_0 0
y_9_0_1 0
y_9_0_2 0
y_9_0_3 0
y_9_0_4 0
y_9_0_5 0
y_9_1_0 1
y_9_1_1 0
y_9_1_2 0
y_9_1_3 0
y_9_1_4 0
y_9_1_5 0
y_9_2_0 0
y_9_2_1 0
y_9_2_2 0
y_9_2_3 0
y_9_2_4 0
y_9_2_5 0
y_9_3_0 0
y_9_3_1 0
y_9_3_2 0
y_9_3_3 1
y_9_3_4 0
y_9_3_5 0
y_10_0_0 0
y_10_0_1 0
y_10_0_2 0
y_10_0_3 0
y_10_0_4 3.0629883540297343e-07
y_10_0_5 0
y_10_1_0 0
y_10_1_1 1
y_10_1_2 0
y_10_1_3 0
y_10_1_4 1.1617037325136259e-07
y_10_1_5 0
y_10_2_0 0
y_10_2_1 0
y_10_2_2 0
y_10_2_3 1
y_10_2_4 9.9999957422058394e-01
y_10_2_5 0
y_10_3_0 0
y_10_3_1 0
y_10_3_2 0
y_10_3_3 0
y_10_3_4 0
y_10_3_5 0
x_0_1_0_0 0
x_0_1_0_1 1
x_0_1_0_2 0
x_0_1_0_3 1
x_0_1_0_4 0
x_0_1_0_5 0
x_0_1_1_0 0
x_0_1_1_1 0
x_0_1_1_2 0
x_0_1_1_3 0
x_0_1_1_4 0
x_0_1_1_5 0
x_0_1_2_0 0
x_0_1_2_1 0
x_0_1_2_2 0
x_0_1_2_3 0
x_0_1_2_4 0
x_0_1_2_5 0
x_0_1_3_0 0
x_0_1_3_1 0
x_0_1_3_2 0
x_0_1_3_3 0
x_0_1_3_4 0
x_0_1_3_5 0
x_0_2_0_0 0
x_0_2_0_1 0
x_0_2_0_2 0
x_0_2_0_3 0
x_0_2_0_4 0
x_0_2_0_5 0
x_0_2_1_0 0
x_0_2_1_1 0
x_0_2_1_2 0
x_0_2_1_3 1.9999998831422554e+00
x_0_2_1_4 0
x_0_2_1_5 0
x_0_2_2_0 0
x_0_2_2_1 2
x_0_2_2_2 0
x_0_2_2_3 0
x_0_2_2_4 0
x_0_2_2_5 0
x_0_2_3_0 0
x_0_2_3_1 0
x_0_2_3_2 2.1708716943018961e-07
x_0_2_3_3 0
x_0_2_3_4 0
x_0_2_3_5 0
x_0_3_0_0 0
x_0_3_0_1 0
x_0_3_0_2 0
x_0_3_0_3 0
x_0_3_0_4 0
x_0_3_0_5 0
x_0_3_1_0 0
x_0_3_1_1 1
x_0_3_1_2 0
x_0_3_1_3 0
x_0_3_1_4 0
x_0_3_1_5 0
x_0_3_2_0 0
x_0_3_2_1 0
x_0_3_2_2 0
x_0_3_2_3 1
x_0_3_2_4 0
x_0_3_2_5 0
x_0_3_3_0 0
x_0_3_3_1 0
x_0_3_3_2 0
x_0_3_3_3 0
x_0_3_3_4 0
x_0_3_3_5 0
x_0_4_0_0 0
x_0_4_0_1 1
x_0_4_0_2 0
x_0_4_0_3 0
x_0_4_0_4 0
x_0_4_0_5 0
x_0_4_1_0 0
x_0_4_1_1 0
x_0_4_1_2 0
x_0_4_1_3 0
x_0_4_1_4 0
x_0_4_1_5 0
x_0_4_2_0 0
x_0_4_2_1 0
x_0_4_2_2 0
x_0_4_2_3 0
x_0_4_2_4 0
x_0_4_2_5 0
x_0_4_3_0 0
x_0_4_3_1 0
x_0_4_3_2 0
x_0_4_3_3 0
x_0_4_3_4 0
x_0_4_3_5 0
x_0_5_0_0 0
x_0_5_0_1 0
x_0_5_0_2 0
x_0_5_0_3 1
x_0_5_0_4 0
x_0_5_0_5 0
x_0_5_1_0 0
x_0_5_1_1 0
x_0_5_1_2 0
x_0_5_1_3 0
x_0_5_1_4 0
x_0_5_1_5 0
x_0_5_2_0 0
x_0_5_2_1 0
x_0_5_2_2 1
x_0_5_2_3 0
x_0_5_2_4 0
x_0_5_2_5 0
x_0_5_3_0 0
x_0_5_3_1 0
x_0_5_3_2 0
x_0_5_3_3 0
x_0_5_3_4 0
x_0_5_3_5 0
x_0_6_0_0 1
x_0_6_0_1 0
x_0_6_0_2 0
x_0_6_0_3 0
x_0_6_0_4 5.4307006783594188e-07
x_0_6_0_5 0
x_0_6_1_0 0
x_0_6_1_1 0
x_0_6_1_2 0
x_0_6_1_3 0
x_0_6_1_4 -1.1756878140665760e-07
x_0_6_1_5 0
x_0_6_2_0 0
x_0_6_2_1 0
x_0_6_2_2 1
x_0_6_2_3 0
x_0_6_2_4 9.9999957344245427e-01
x_0_6_2_5 0
x_0_6_3_0 0
x_0_6_3_1 0
x_0_6_3_2 0
x_0_6_3_3 0
x_0_6_3_4 0
x_0_6_3_5 0
x_0_7_0_0 0
x_0_7_0_1 0
x_0_7_0_2 2
x_0_7_0_3 0
x_0_7_0_4 1.9999989340266295e+00
x_0_7_0_5 0
x_0_7_1_0 1
x_0_7_1_1 0
x_0_7_1_2 0
x_0_7_1_3 1.1470731871618619e-07
x_0_7_1_4 6.3729624494011007e-07
x_0_7_1_5 0
x_0_7_2_0 0
x_0_7_2_1 0
x_0_7_2_2 0
x_0_7_2_3 0
x_0_7_2_4 0
x_0_7_2_5 0
x_0_7_3_0 0
x_0_7_3_1 0
x_0_7_3_2 0
x_0_7_3_3 0
x_0_7_3_4 0
x_0_7_3_5 0
x_0_8_0_0 1
x_0_8_0_1 0
x_0_8_0_2 0
x_0_8_0_3 0
x_0_8_0_4 6.3930181670891172e-07
x_0_8_0_5 0
x_0_8_1_0 0
x_0_8_1_1 0
x_0_8_1_2 2
x_0_8_1_3 0
x_0_8_1_4 1.9999993612878408e+00
x_0_8_1_5 0
x_0_8_2_0 0
x_0_8_2_1 0
x_0_8_2_2 0
x_0_8_2_3 0
x_0_8_2_4 0
x_0_8_2_5 0
x_0_8_3_0 0
x_0_8_3_1 0
x_0_8_3_2 0
x_0_8_3_3 0
x_0_8_3_4 0
x_0_8_3_5 0
x_0_9_0_0 0
x_0_9_0_1 0
x_0_9_0_2 0
x_0_9_0_3 0
x_0_9_0_4 0
x_0_9_0_5 0
x_0_9_1_0 1
x_0_9_1_1 0
x_0_9_1_2 0
x_0_9_1_3 0
x_0_9_1_4 0
x_0_9_1_5 0
x_0_9_2_0 0
x_0_9_2_1 0
x_0_9_2_2 0
x_0_9_2_3 0
x_0_9_2_4 0
x_0_9_2_5 0
x_0_9_3_0 0
x_0_9_3_1 0
x_0_9_3_2 0
x_0_9_3_3 2
x_0_9_3_4 0
x_0_9_3_5 0
x_0_10_0_0 0
x_0_10_0_1 0
x_0_10_0_2 0
x_0_10_0_3 0
x_0_10_0_4 -1.1789109567819111e-07
x_0_10_0_5 0
x_0_10_1_0 0
x_0_10_1_1 1
x_0_10_1_2 0
x_0_10_1_3 0
x_0_10_1_4 1.1787358460115707e-07
x_0_10_1_5 0
x_0_10_2_0 0
x_0_10_2_1 0
x_0_10_2_2 0
x_0_10_2_3 1
x_0_10_2_4 9.9999957336488654e-01
x_0_10_2_5 0
x_0_10_3_0 0
x_0_10_3_1 0
x_0_10_3_2 0
x_0_10_3_3 0
x_0_10_3_4 0
x_0_10_3_5 0
x_1_2_0_0 0
x_1_2_0_1 0
x_1_2_0_2 0
x_1_2_0_3 0
x_1_2_0_4 0
x_1_2_0_5 0
x_1_2_1_0 0
x_1_2_1_1 0
x_1_2_1_2 0
x_1_2_1_3 0
x_1_2_1_4 0
x_1_2_1_5 0
x_1_2_2_0 0
x_1_2_2_1 0
x_1_2_2_2 0
x_1_2_2_3 0
x_1_2_2_4 0
x_1_2_2_5 0
x_1_2_3_0 0
x_1_2_3_1 0
x_1_2_3_2 0
x_1_2_3_3 0
x_1_2_3_4 0
x_1_2_3_5 0
x_1_3_0_0 0
x_1_3_0_1 0
x_1_3_0_2 0
x_1_3_0_3 0
x_1_3_0_4 0
x_1_3_0_5 0
x_1_3_1_0 0
x_1_3_1_1 0
x_1_3_1_2 0
x_1_3_1_3 0
x_1_3_1_4 0
x_1_3_1_5 0
x_1_3_2_0 0
x_1_3_2_1 0
x_1_3_2_2 0
x_1_3_2_3 0
x_1_3_2_4 0
x_1_3_2_5 0
x_1_3_3_0 0
x_1_3_3_1 0
x_1_3_3_2 0
x_1_3_3_3 0
x_1_3_3_4 0
x_1_3_3_5 0
x_1_4_0_0 0
x_1_4_0_1 1
x_1_4_0_2 0
x_1_4_0_3 1
x_1_4_0_4 0
x_1_4_0_5 0
x_1_4_1_0 0
x_1_4_1_1 0
x_1_4_1_2 0
x_1_4_1_3 0
x_1_4_1_4 0
x_1_4_1_5 0
x_1_4_2_0 0
x_1_4_2_1 0
x_1_4_2_2 0
x_1_4_2_3 0
x_1_4_2_4 0
x_1_4_2_5 0
x_1_4_3_0 0
x_1_4_3_1 0
x_1_4_3_2 0
x_1_4_3_3 0
x_1_4_3_4 0
x_1_4_3_5 0
x_1_5_0_0 0
x_1_5_0_1 0
x_1_5_0_2 0
x_1_5_0_3 0
x_1_5_0_4 0
x_1_5_0_5 0
x_1_5_1_0 0
x_1_5_1_1 0
x_1_5_1_2 0
x_1_5_1_3 0
x_1_5_1_4 0
x_1_5_1_5 0
x_1_5_2_0 0
x_1_5_2_1 0
x_1_5_2_2 0
x_1_5_2_3 0
x_1_5_2_4 0
x_1_5_2_5 0
x_1_5_3_0 0
x_1_5_3_1 0
x_1_5_3_2 0
x_1_5_3_3 0
x_1_5_3_4 0
x_1_5_3_5 0
x_1_6_0_0 0
x_1_6_0_1 0
x_1_6_0_2 0
x_1_6_0_3 0
x_1_6_0_4 0
x_1_6_0_5 0
x_1_6_1_0 0
x_1_6_1_1 0
x_1_6_1_2 0
x_1_6_1_3 0
x_1_6_1_4 0
x_1_6_1_5 0
x_1_6_2_0 0
x_1_6_2_1 0
x_1_6_2_2 0
x_1_6_2_3 0
x_1_6_2_4 0
x_1_6_2_5 0
x_1_6_3_0 0
x_1_6_3_1 0
x_1_6_3_2 0
x_1_6_3_3 0
x_1_6_3_4 0
x_1_6_3_5 0
x_1_7_0_0 0
x_1_7_0_1 0
x_1_7_0_2 0
x_1_7_0_3 0
x_1_7_0_4 0
x_1_7_0_5 0
x_1_7_1_0 0
x_1_7_1_1 0
x_1_7_1_2 0
x_1_7_1_3 0
x_1_7_1_4 0
x_1_7_1_5 0
x_1_7_2_0 0
x_1_7_2_1 0
x_1_7_2_2 0
x_1_7_2_3 0
x_1_7_2_4 0
x_1_7_2_5 0
x_1_7_3_0 0
x_1_7_3_1 0
x_1_7_3_2 0
x_1_7_3_3 0
x_1_7_3_4 0
x_1_7_3_5 0
x_1_8_0_0 0
x_1_8_0_1 0
x_1_8_0_2 0
x_1_8_0_3 0
x_1_8_0_4 0
x_1_8_0_5 0
x_1_8_1_0 0
x_1_8_1_1 0
x_1_8_1_2 0
x_1_8_1_3 0
x_1_8_1_4 0
x_1_8_1_5 0
x_1_8_2_0 0
x_1_8_2_1 0
x_1_8_2_2 0
x_1_8_2_3 0
x_1_8_2_4 0
x_1_8_2_5 0
x_1_8_3_0 0
x_1_8_3_1 0
x_1_8_3_2 0
x_1_8_3_3 0
x_1_8_3_4 0
x_1_8_3_5 0
x_1_9_0_0 0
x_1_9_0_1 0
x_1_9_0_2 0
x_1_9_0_3 0
x_1_9_0_4 0
x_1_9_0_5 0
x_1_9_1_0 0
x_1_9_1_1 0
x_1_9_1_2 0
x_1_9_1_3 0
x_1_9_1_4 0
x_1_9_1_5 0
x_1_9_2_0 0
x_1_9_2_1 0
x_1_9_2_2 0
x_1_9_2_3 0
x_1_9_2_4 0
x_1_9_2_5 0
x_1_9_3_0 0
x_1_9_3_1 0
x_1_9_3_2 0
x_1_9_3_3 0
x_1_9_3_4 0
x_1_9_3_5 0
x_1_10_0_0 0
x_1_10_0_1 0
x_1_10_0_2 0
x_1_10_0_3 0
x_1_10_0_4 0
x_1_10_0_5 0
x_1_10_1_0 0
x_1_10_1_1 0
x_1_10_1_2 0
x_1_10_1_3 0
x_1_10_1_4 0
x_1_10_1_5 0
x_1_10_2_0 0
x_1_10_2_1 0
x_1_10_2_2 0
x_1_10_2_3 0
x_1_10_2_4 0
x_1_10_2_5 0
x_1_10_3_0 0
x_1_10_3_1 0
x_1_10_3_2 0
x_1_10_3_3 0
x_1_10_3_4 0
x_1_10_3_5 0
x_2_3_0_0 0
x_2_3_0_1 0
x_2_3_0_2 0
x_2_3_0_3 0
x_2_3_0_4 0
x_2_3_0_5 0
x_2_3_1_0 0
x_2_3_1_1 0
x_2_3_1_2 0
x_2_3_1_3 0
x_2_3_1_4 0
x_2_3_1_5 0
x_2_3_2_0 0
x_2_3_2_1 0
x_2_3_2_2 0
x_2_3_2_3 0
x_2_3_2_4 0
x_2_3_2_5 0
x_2_3_3_0 0
x_2_3_3_1 0
x_2_3_3_2 0
x_2_3_3_3 0
x_2_3_3_4 0
x_2_3_3_5 0
x_2_4_0_0 0
x_2_4_0_1 0
x_2_4_0_2 0
x_2_4_0_3 0
x_2_4_0_4 0
x_2_4_0_5 0
x_2_4_1_0 0
x_2_4_1_1 0
x_2_4_1_2 0
x_2_4_1_3 0
x_2_4_1_4 0
x_2_4_1_5 0
x_2_4_2_0 0
x_2_4_2_1 0
x_2_4_2_2 0
x_2_4_2_3 0
x_2_4_2_4 0
x_2_4_2_5 0
x_2_4_3_0 0
x_2_4_3_1 0
x_2_4_3_2 0
x_2_4_3_3 0
x_2_4_3_4 0
x_2_4_3_5 0
x_2_5_0_0 0
x_2_5_0_1 0
x_2_5_0_2 0
x_2_5_0_3 0
x_2_5_0_4 0
x_2_5_0_5 0
x_2_5_1_0 0
x_2_5_1_1 0
x_2_5_1_2 0
x_2_5_1_3 0
x_2_5_1_4 0
x_2_5_1_5 0
x_2_5_2_0 0
x_2_5_2_1 0
x_2_5_2_2 0
x_2_5_2_3 0
x_2_5_2_4 0
x_2_5_2_5 0
x_2_5_3_0 0
x_2_5_3_1 0
x_2_5_3_2 0
x_2_5_3_3 0
x_2_5_3_4 0
x_2_5_3_5 0
x_2_6_0_0 0
x_2_6_0_1 0
x_2_6_0_2 0
x_2_6_0_3 0
x_2_6_0_4 0
x_2_6_0_5 0
x_2_6_1_0 0
x_2_6_1_1 0
x_2_6_1_2 0
x_2_6_1_3 0
x_2_6_1_4 0
x_2_6_1_5 0
x_2_6_2_0 0
x_2_6_2_1 0
x_2_6_2_2 0
x_2_6_2_3 0
x_2_6_2_4 0
x_2_6_2_5 0
x_2_6_3_0 0
x_2_6_3_1 0
x_2_6_3_2 0
x_2_6_3_3 0
x_2_6_3_4 0
x_2_6_3_5 0
x_2_7_0_0 0
x_2_7_0_1 0
x_2_7_0_2 0
x_2_7_0_3 0
x_2_7_0_4 0
x_2_7_0_5 0
x_2_7_1_0 0
x_2_7_1_1 0
x_2_7_1_2 0
x_2_7_1_3 1.1560774452423213e-07
x_2_7_1_4 0
x_2_7_1_5 0
x_2_7_2_0 0
x_2_7_2_1 0
x_2_7_2_2 0
x_2_7_2_3 0
x_2_7_2_4 0
x_2_7_2_5 0
x_2_7_3_0 0
x_2_7_3_1 0
x_2_7_3_2 0
x_2_7_3_3 0
x_2_7_3_4 0
x_2_7_3_5 0
x_2_8_0_0 0
x_2_8_0_1 0
x_2_8_0_2 0
x_2_8_0_3 0
x_2_8_0_4 0
x_2_8_0_5 0
x_2_8_1_0 0
x_2_8_1_1 0
x_2_8_1_2 0
x_2_8_1_3 0
x_2_8_1_4 0
x_2_8_1_5 0
x_2_8_2_0 0
x_2_8_2_1 0
x_2_8_2_2 0
x_2_8_2_3 0
x_2_8_2_4 0
x_2_8_2_5 0
x_2_8_3_0 0
x_2_8_3_1 0
x_2_8_3_2 0
x_2_8_3_3 0
x_2_8_3_4 0
x_2_8_3_5 0
x_2_9_0_0 0
x_2_9_0_1 0
x_2_9_0_2 0
x_2_9_0_3 0
x_2_9_0_4 0
x_2_9_0_5 0
x_2_9_1_0 0
x_2_9_1_1 0
x_2_9_1_2 0
x_2_9_1_3 0
x_2_9_1_4 0
x_2_9_1_5 0
x_2_9_2_0 0
x_2_9_2_1 0
x_2_9_2_2 0
x_2_9_2_3 0
x_2_9_2_4 0
x_2_9_2_5 0
x_2_9_3_0 0
x_2_9_3_1 0
x_2_9_3_2 0
x_2_9_3_3 0
x_2_9_3_4 0
x_2_9_3_5 0
x_2_10_0_0 0
x_2_10_0_1 0
x_2_10_0_2 0
x_2_10_0_3 0
x_2_10_0_4 0
x_2_10_0_5 0
x_2_10_1_0 0
x_2_10_1_1 0
x_2_10_1_2 0
x_2_10_1_3 0
x_2_10_1_4 0
x_2_10_1_5 0
x_2_10_2_0 0
x_2_10_2_1 0
x_2_10_2_2 0
x_2_10_2_3 0
x_2_10_2_4 0
x_2_10_2_5 0
x_2_10_3_0 0
x_2_10_3_1 0
x_2_10_3_2 0
x_2_10_3_3 0
x_2_10_3_4 0
x_2_10_3_5 0
x_3_4_0_0 0
x_3_4_0_1 0
x_3_4_0_2 0
x_3_4_0_3 0
x_3_4_0_4 0
x_3_4_0_5 0
x_3_4_1_0 0
x_3_4_1_1 0
x_3_4_1_2 0
x_3_4_1_3 0
x_3_4_1_4 0
x_3_4_1_5 0
x_3_4_2_0 0
x_3_4_2_1 0
x_3_4_2_2 0
x_3_4_2_3 0
x_3_4_2_4 0
x_3_4_2_5 0
x_3_4_3_0 0
x_3_4_3_1 0
x_3_4_3_2 0
x_3_4_3_3 0
x_3_4_3_4 0
x_3_4_3_5 0
x_3_5_0_0 0
x_3_5_0_1 0
x_3_5_0_2 0
x_3_5_0_3 0
x_3_5_0_4 0
x_3_5_0_5 0
x_3_5_1_0 0
x_3_5_1_1 0
x_3_5_1_2 0
x_3_5_1_3 0
x_3_5_1_4 0
x_3_5_1_5 0
x_3_5_2_0 0
x_3_5_2_1 0
x_3_5_2_2 0
x_3_5_2_3 0
x_3_5_2_4 0
x_3_5_2_5 0
x_3_5_3_0 0
x_3_5_3_1 0
x_3_5_3_2 0
x_3_5_3_3 0
x_3_5_3_4 0
x_3_5_3_5 0
x_3_6_0_0 0
x_3_6_0_1 0
x_3_6_0_2 0
x_3_6_0_3 0
x_3_6_0_4 0
x_3_6_0_5 0
x_3_6_1_0 0
x_3_6_1_1 0
x_3_6_1_2 0
x_3_6_1_3 0
x_3_6_1_4 0
x_3_6_1_5 0
x_3_6_2_0 0
x_3_6_2_1 0
x_3_6_2_2 0
x_3_6_2_3 0
x_3_6_2_4 0
x_3_6_2_5 0
x_3_6_3_0 0
x_3_6_3_1 0
x_3_6_3_2 0
x_3_6_3_3 0
x_3_6_3_4 0
x_3_6_3_5 0
x_3_7_0_0 0
x_3_7_0_1 0
x_3_7_0_2 0
x_3_7_0_3 0
x_3_7_0_4 0
x_3_7_0_5 0
x_3_7_1_0 0
x_3_7_1_1 0
x_3_7_1_2 0
x_3_7_1_3 0
x_3_7_1_4 0
x_3_7_1_5 0
x_3_7_2_0 0
x_3_7_2_1 0
x_3_7_2_2 0
x_3_7_2_3 0
x_3_7_2_4 0
x_3_7_2_5 0
x_3_7_3_0 0
x_3_7_3_1 0
x_3_7_3_2 0
x_3_7_3_3 0
x_3_7_3_4 0
x_3_7_3_5 0
x_3_8_0_0 0
x_3_8_0_1 0
x_3_8_0_2 0
x_3_8_0_3 0
x_3_8_0_4 0
x_3_8_0_5 0
x_3_8_1_0 0
x_3_8_1_1 0
x_3_8_1_2 0
x_3_8_1_3 0
x_3_8_1_4 0
x_3_8_1_5 0
x_3_8_2_0 0
x_3_8_2_1 0
x_3_8_2_2 0
x_3_8_2_3 0
x_3_8_2_4 0
x_3_8_2_5 0
x_3_8_3_0 0
x_3_8_3_1 0
x_3_8_3_2 0
x_3_8_3_3 0
x_3_8_3_4 0
x_3_8_3_5 0
x_3_9_0_0 0
x_3_9_0_1 0
x_3_9_0_2 0
x_3_9_0_3 0
x_3_9_0_4 0
x_3_9_0_5 0
x_3_9_1_0 0
x_3_9_1_1 0
x_3_9_1_2 0
x_3_9_1_3 0
x_3_9_1_4 0
x_3_9_1_5 0
x_3_9_2_0 0
x_3_9_2_1 0
x_3_9_2_2 0
x_3_9_2_3 0
x_3_9_2_4 0
x_3_9_2_5 0
x_3_9_3_0 0
x_3_9_3_1 0
x_3_9_3_2 0
x_3_9_3_3 0
x_3_9_3_4 0
x_3_9_3_5 0
x_3_10_0_0 0
x_3_10_0_1 0
x_3_10_0_2 0
x_3_10_0_3 0
x_3_10_0_4 0
x_3_10_0_5 0
x_3_10_1_0 0
x_3_10_1_1 1
x_3_10_1_2 0
x_3_10_1_3 0
x_3_10_1_4 0
x_3_10_1_5 0
x_3_10_2_0 0
x_3_10_2_1 0
x_3_10_2_2 0
x_3_10_2_3 1
x_3_10_2_4 0
x_3_10_2_5 0
x_3_10_3_0 0
x_3_10_3_1 0
x_3_10_3_2 0
x_3_10_3_3 0
x_3_10_3_4 0
x_3_10_3_5 0
x_4_5_0_0 0
x_4_5_0_1 0
x_4_5_0_2 0
x_4_5_0_3 1
x_4_5_0_4 0
x_4_5_0_5 0
x_4_5_1_0 0
x_4_5_1_1 0
x_4_5_1_2 0
x_4_5_1_3 0
x_4_5_1_4 0
x_4_5_1_5 0
x_4_5_2_0 0
x_4_5_2_1 0
x_4_5_2_2 0
x_4_5_2_3 0
x_4_5_2_4 0
x_4_5_2_5 0
x_4_5_3_0 0
x_4_5_3_1 0
x_4_5_3_2 0
x_4_5_3_3 0
x_4_5_3_4 0
x_4_5_3_5 0
x_4_6_0_0 0
x_4_6_0_1 0
x_4_6_0_2 0
x_4_6_0_3 0
x_4_6_0_4 3.0765543101925792e-07
x_4_6_0_5 0
x_4_6_1_0 0
x_4_6_1_1 0
x_4_6_1_2 0
x_4_6_1_3 0
x_4_6_1_4 1.1554065164861407e-07
x_4_6_1_5 0
x_4_6_2_0 0
x_4_6_2_1 0
x_4_6_2_2 0
x_4_6_2_3 0
x_4_6_2_4 9.9999957326429889e-01
x_4_6_2_5 0
x_4_6_3_0 0
x_4_6_3_1 0
x_4_6_3_2 0
x_4_6_3_3 0
x_4_6_3_4 0
x_4_6_3_5 0
x_4_7_0_0 0
x_4_7_0_1 0
x_4_7_0_2 0
x_4_7_0_3 0
x_4_7_0_4 0
x_4_7_0_5 0
x_4_7_1_0 0
x_4_7_1_1 0
x_4_7_1_2 0
x_4_7_1_3 0
x_4_7_1_4 0
x_4_7_1_5 0
x_4_7_2_0 0
x_4_7_2_1 0
x_4_7_2_2 0
x_4_7_2_3 0
x_4_7_2_4 0
x_4_7_2_5 0
x_4_7_3_0 0
x_4_7_3_1 0
x_4_7_3_2 0
x_4_7_3_3 0
x_4_7_3_4 0
x_4_7_3_5 0
x_4_8_0_0 0
x_4_8_0_1 0
x_4_8_0_2 0
x_4_8_0_3 0
x_4_8_0_4 0
x_4_8_0_5 0
x_4_8_1_0 0
x_4_8_1_1 0
x_4_8_1_2 0
x_4_8_1_3 0
x_4_8_1_4 0
x_4_8_1_5 0
x_4_8_2_0 0
x_4_8_2_1 0
x_4_8_2_2 0
x_4_8_2_3 0
x_4_8_2_4 0
x_4_8_2_5 0
x_4_8_3_0 0
x_4_8_3_1 0
x_4_8_3_2 0
x_4_8_3_3 0
x_4_8_3_4 0
x_4_8_3_5 0
x_4_9_0_0 0
x_4_9_0_1 0
x_4_9_0_2 0
x_4_9_0_3 0
x_4_9_0_4 0
x_4_9_0_5 0
x_4_9_1_0 0
x_4_9_1_1 0
x_4_9_1_2 0
x_4_9_1_3 0
x_4_9_1_4 0
x_4_9_1_5 0
x_4_9_2_0 0
x_4_9_2_1 0
x_4_9_2_2 0
x_4_9_2_3 0
x_4_9_2_4 0
x_4_9_2_5 0
x_4_9_3_0 0
x_4_9_3_1 0
x_4_9_3_2 0
x_4_9_3_3 0
x_4_9_3_4 0
x_4_9_3_5 0
x_4_10_0_0 0
x_4_10_0_1 0
x_4_10_0_2 0
x_4_10_0_3 0
x_4_10_0_4 3.0254431990814686e-07
x_4_10_0_5 0
x_4_10_1_0 0
x_4_10_1_1 0
x_4_10_1_2 0
x_4_10_1_3 0
x_4_10_1_4 1.13356050790457e-07
x_4_10_1_5 0
x_4_10_2_0 0
x_4_10_2_1 0
x_4_10_2_2 0
x_4_10_2_3 0
x_4_10_2_4 0.999999573315993
x_4_10_2_5 0
x_4_10_3_0 0
x_4_10_3_1 0
x_4_10_3_2 0
x_4_10_3_3 0
x_4_10_3_4 0
x_4_10_3_5 0
x_5_6_0_0 0
x_5_6_0_1 0
x_5_6_0_2 0
x_5_6_0_3 0
x_5_6_0_4 0
x_5_6_0_5 0
x_5_6_1_0 0
x_5_6_1_1 0
x_5_6_1_2 0
x_5_6_1_3 0
x_5_6_1_4 0
x_5_6_1_5 0
x_5_6_2_0 0
x_5_6_2_1 0
x_5_6_2_2 1
x_5_6_2_3 0
x_5_6_2_4 0
x_5_6_2_5 0
x_5_6_3_0 0
x_5_6_3_1 0
x_5_6_3_2 0
x_5_6_3_3 0
x_5_6_3_4 0
x_5_6_3_5 0
x_5_7_0_0 0
x_5_7_0_1 0
x_5_7_0_2 0
x_5_7_0_3 0
x_5_7_0_4 0
x_5_7_0_5 0
x_5_7_1_0 0
x_5_7_1_1 0
x_5_7_1_2 0
x_5_7_1_3 0
x_5_7_1_4 0
x_5_7_1_5 0
x_5_7_2_0 0
x_5_7_2_1 0
x_5_7_2_2 0
x_5_7_2_3 0
x_5_7_2_4 0
x_5_7_2_5 0
x_5_7_3_0 0
x_5_7_3_1 0
x_5_7_3_2 0
x_5_7_3_3 0
x_5_7_3_4 0
x_5_7_3_5 0
x_5_8_0_0 0
x_5_8_0_1 0
x_5_8_0_2 0
x_5_8_0_3 0
x_5_8_0_4 0
x_5_8_0_5 0
x_5_8_1_0 0
x_5_8_1_1 0
x_5_8_1_2 0
x_5_8_1_3 0
x_5_8_1_4 0
x_5_8_1_5 0
x_5_8_2_0 0
x_5_8_2_1 0
x_5_8_2_2 0
x_5_8_2_3 0
x_5_8_2_4 0
x_5_8_2_5 0
x_5_8_3_0 0
x_5_8_3_1 0
x_5_8_3_2 0
x_5_8_3_3 0
x_5_8_3_4 0
x_5_8_3_5 0
x_5_9_0_0 0
x_5_9_0_1 0
x_5_9_0_2 0
x_5_9_0_3 0
x_5_9_0_4 0
x_5_9_0_5 0
x_5_9_1_0 0
x_5_9_1_1 0
x_5_9_1_2 0
x_5_9_1_3 0
x_5_9_1_4 0
x_5_9_1_5 0
x_5_9_2_0 0
x_5_9_2_1 0
x_5_9_2_2 0
x_5_9_2_3 0
x_5_9_2_4 0
x_5_9_2_5 0
x_5_9_3_0 0
x_5_9_3_1 0
x_5_9_3_2 0
x_5_9_3_3 0
x_5_9_3_4 0
x_5_9_3_5 0
x_5_10_0_0 0
x_5_10_0_1 0
x_5_10_0_2 0
x_5_10_0_3 0
x_5_10_0_4 0
x_5_10_0_5 0
x_5_10_1_0 0
x_5_10_1_1 0
x_5_10_1_2 0
x_5_10_1_3 0
x_5_10_1_4 0
x_5_10_1_5 0
x_5_10_2_0 0
x_5_10_2_1 0
x_5_10_2_2 0
x_5_10_2_3 0
x_5_10_2_4 0
x_5_10_2_5 0
x_5_10_3_0 0
x_5_10_3_1 0
x_5_10_3_2 0
x_5_10_3_3 0
x_5_10_3_4 0
x_5_10_3_5 0
x_6_7_0_0 0
x_6_7_0_1 0
x_6_7_0_2 0
x_6_7_0_3 0
x_6_7_0_4 0
x_6_7_0_5 0
x_6_7_1_0 0
x_6_7_1_1 0
x_6_7_1_2 0
x_6_7_1_3 0
x_6_7_1_4 0
x_6_7_1_5 0
x_6_7_2_0 0
x_6_7_2_1 0
x_6_7_2_2 0
x_6_7_2_3 0
x_6_7_2_4 0
x_6_7_2_5 0
x_6_7_3_0 0
x_6_7_3_1 0
x_6_7_3_2 0
x_6_7_3_3 0
x_6_7_3_4 0
x_6_7_3_5 0
x_6_8_0_0 1
x_6_8_0_1 0
x_6_8_0_2 0
x_6_8_0_3 0
x_6_8_0_4 0
x_6_8_0_5 0
x_6_8_1_0 0
x_6_8_1_1 0
x_6_8_1_2 0
x_6_8_1_3 0
x_6_8_1_4 0
x_6_8_1_5 0
x_6_8_2_0 0
x_6_8_2_1 0
x_6_8_2_2 0
x_6_8_2_3 0
x_6_8_2_4 0
x_6_8_2_5 0
x_6_8_3_0 0
x_6_8_3_1 0
x_6_8_3_2 0
x_6_8_3_3 0
x_6_8_3_4 0
x_6_8_3_5 0
x_6_9_0_0 0
x_6_9_0_1 0
x_6_9_0_2 0
x_6_9_0_3 0
x_6_9_0_4 0
x_6_9_0_5 0
x_6_9_1_0 0
x_6_9_1_1 0
x_6_9_1_2 0
x_6_9_1_3 0
x_6_9_1_4 0
x_6_9_1_5 0
x_6_9_2_0 0
x_6_9_2_1 0
x_6_9_2_2 0
x_6_9_2_3 0
x_6_9_2_4 0
x_6_9_2_5 0
x_6_9_3_0 0
x_6_9_3_1 0
x_6_9_3_2 0
x_6_9_3_3 0
x_6_9_3_4 0
x_6_9_3_5 0
x_6_10_0_0 0
x_6_10_0_1 0
x_6_10_0_2 0
x_6_10_0_3 0
x_6_10_0_4 0
x_6_10_0_5 0
x_6_10_1_0 0
x_6_10_1_1 0
x_6_10_1_2 0
x_6_10_1_3 0
x_6_10_1_4 0
x_6_10_1_5 0
x_6_10_2_0 0
x_6_10_2_1 0
x_6_10_2_2 0
x_6_10_2_3 0
x_6_10_2_4 0
x_6_10_2_5 0
x_6_10_3_0 0
x_6_10_3_1 0
x_6_10_3_2 0
x_6_10_3_3 0
x_6_10_3_4 0
x_6_10_3_5 0
x_7_8_0_0 0
x_7_8_0_1 0
x_7_8_0_2 0
x_7_8_0_3 0
x_7_8_0_4 0
x_7_8_0_5 0
x_7_8_1_0 0
x_7_8_1_1 0
x_7_8_1_2 0
x_7_8_1_3 0
x_7_8_1_4 0
x_7_8_1_5 0
x_7_8_2_0 0
x_7_8_2_1 0
x_7_8_2_2 0
x_7_8_2_3 0
x_7_8_2_4 0
x_7_8_2_5 0
x_7_8_3_0 0
x_7_8_3_1 0
x_7_8_3_2 0
x_7_8_3_3 0
x_7_8_3_4 0
x_7_8_3_5 0
x_7_9_0_0 0
x_7_9_0_1 0
x_7_9_0_2 0
x_7_9_0_3 0
x_7_9_0_4 0
x_7_9_0_5 0
x_7_9_1_0 1
x_7_9_1_1 0
x_7_9_1_2 0
x_7_9_1_3 0
x_7_9_1_4 0
x_7_9_1_5 0
x_7_9_2_0 0
x_7_9_2_1 0
x_7_9_2_2 0
x_7_9_2_3 0
x_7_9_2_4 0
x_7_9_2_5 0
x_7_9_3_0 0
x_7_9_3_1 0
x_7_9_3_2 0
x_7_9_3_3 0
x_7_9_3_4 0
x_7_9_3_5 0
x_7_10_0_0 0
x_7_10_0_1 0
x_7_10_0_2 0
x_7_10_0_3 0
x_7_10_0_4 4.2694444657599105e-07
x_7_10_0_5 0
x_7_10_1_0 0
x_7_10_1_1 0
x_7_10_1_2 0
x_7_10_1_3 0
x_7_10_1_4 0
x_7_10_1_5 0
x_7_10_2_0 0
x_7_10_2_1 0
x_7_10_2_2 0
x_7_10_2_3 0
x_7_10_2_4 0
x_7_10_2_5 0
x_7_10_3_0 0
x_7_10_3_1 0
x_7_10_3_2 0
x_7_10_3_3 0
x_7_10_3_4 0
x_7_10_3_5 0
x_8_9_0_0 0
x_8_9_0_1 0
x_8_9_0_2 0
x_8_9_0_3 0
x_8_9_0_4 0
x_8_9_0_5 0
x_8_9_1_0 0
x_8_9_1_1 0
x_8_9_1_2 0
x_8_9_1_3 0
x_8_9_1_4 0
x_8_9_1_5 0
x_8_9_2_0 0
x_8_9_2_1 0
x_8_9_2_2 0
x_8_9_2_3 0
x_8_9_2_4 0
x_8_9_2_5 0
x_8_9_3_0 0
x_8_9_3_1 0
x_8_9_3_2 0
x_8_9_3_3 0
x_8_9_3_4 0
x_8_9_3_5 0
x_8_10_0_0 0
x_8_10_0_1 0
x_8_10_0_2 0
x_8_10_0_3 0
x_8_10_0_4 0
x_8_10_0_5 0
x_8_10_1_0 0
x_8_10_1_1 0
x_8_10_1_2 0
x_8_10_1_3 0
x_8_10_1_4 0
x_8_10_1_5 0
x_8_10_2_0 0
x_8_10_2_1 0
x_8_10_2_2 0
x_8_10_2_3 0
x_8_10_2_4 0
x_8_10_2_5 0
x_8_10_3_0 0
x_8_10_3_1 0
x_8_10_3_2 0
x_8_10_3_3 0
x_8_10_3_4 0
x_8_10_3_5 0
x_9_10_0_0 0
x_9_10_0_1 0
x_9_10_0_2 0
x_9_10_0_3 0
x_9_10_0_4 0
x_9_10_0_5 0
x_9_10_1_0 0
x_9_10_1_1 0
x_9_10_1_2 0
x_9_10_1_3 0
x_9_10_1_4 0
x_9_10_1_5 0
x_9_10_2_0 0
x_9_10_2_1 0
x_9_10_2_2 0
x_9_10_2_3 0
x_9_10_2_4 0
x_9_10_2_5 0
x_9_10_3_0 0
x_9_10_3_1 0
x_9_10_3_2 0
x_9_10_3_3 0
x_9_10_3_4 0
x_9_10_3_5 0
